data/processed_heuristic-threshold/instances/1/8/ds_607_courier_2618/pairwise.tsp
NAME: ds_607_courier_2618
TYPE: TSP
COMMENT: nil
DIMENSION: 9
EDGE_WEIGHT_TYPE: EXPLICIT
EDGE_WEIGHT_FORMAT: FULL_MATRIX
EDGE_WEIGHT_SECTION
9999 2267 2252 2263 2184 2130 2196 2103 562 
2267 9999 355 606 142 647 750 169 2742 
2252 355 9999 252 244 313 401 409 2764 
2263 606 252 9999 488 141 165 644 2796 
2184 142 244 488 9999 514 621 170 2672 
2130 647 313 141 514 9999 122 648 2666 
2196 750 401 165 621 122 9999 763 2739 
2103 169 409 644 170 648 763 9999 2574 
562 2742 2764 2796 2672 2666 2739 2574 9999 
