data/processed_heuristic-threshold/instances/1/8/ds_607_courier_2618/pairwise.sol
9
0 8 7 1 4 2 3 6 5 
